N = 7;
Capacity = 12;
Demand = [5, 6, 2, 7, 3, 2, 7];
Distance = [|
  0, 37, 51, 32, 23, 39, 41, 44
| 37, 0, 71, 38, 60, 72, 70, 17
| 51, 71, 0, 34, 48, 74, 21, 65
| 32, 38, 34, 0, 45, 68, 38, 31
| 23, 60, 48, 45, 0, 26, 30, 65
| 39, 72, 74, 68, 26, 0, 55, 83
| 41, 70, 21, 38, 30, 55, 0, 69
| 44, 17, 65, 31, 65, 83, 69, 0
|];
